c colouring generated by benchmark framework
p edge 385 19095
v 1 7
v 2 32
v 3 14
v 4 5
v 5 23
v 6 19
v 7 28
v 8 6
v 9 10
v 10 9
v 11 25
v 12 26
v 13 36
v 14 15
v 15 6
v 16 1
v 17 11
v 18 3
v 19 20
v 20 4
v 21 2
v 22 8
v 23 11
v 24 5
v 25 14
v 26 32
v 27 8
v 28 2
v 29 20
v 30 14
v 31 18
v 32 4
v 33 12
v 34 15
v 35 35
v 36 9
v 37 5
v 38 4
v 39 10
v 40 2
v 41 16
v 42 33
v 43 15
v 44 3
v 45 24
v 46 12
v 47 18
v 48 11
v 49 16
v 50 1
v 51 19
v 52 10
v 53 2
v 54 6
v 55 28
v 56 26
v 57 2
v 58 9
v 59 10
v 60 8
v 61 5
v 62 4
v 63 26
v 64 39
v 65 1
v 66 22
v 67 18
v 68 31
v 69 3
v 70 31
v 71 24
v 72 12
v 73 37
v 74 22
v 75 9
v 76 28
v 77 24
v 78 34
v 79 4
v 80 9
v 81 34
v 82 27
v 83 5
v 84 4
v 85 9
v 86 3
v 87 31
v 88 21
v 89 12
v 90 14
v 91 17
v 92 17
v 93 22
v 94 12
v 95 34
v 96 20
v 97 5
v 98 24
v 99 39
v 100 0
v 101 9
v 102 28
v 103 13
v 104 19
v 105 6
v 106 36
v 107 21
v 108 10
v 109 1
v 110 17
v 111 8
v 112 9
v 113 7
v 114 18
v 115 14
v 116 2
v 117 5
v 118 3
v 119 5
v 120 2
v 121 15
v 122 28
v 123 40
v 124 29
v 125 1
v 126 16
v 127 11
v 128 14
v 129 13
v 130 4
v 131 19
v 132 18
v 133 7
v 134 4
v 135 19
v 136 6
v 137 39
v 138 28
v 139 39
v 140 19
v 141 18
v 142 2
v 143 13
v 144 6
v 145 11
v 146 3
v 147 8
v 148 10
v 149 1
v 150 17
v 151 25
v 152 36
v 153 8
v 154 41
v 155 26
v 156 0
v 157 11
v 158 7
v 159 25
v 160 11
v 161 13
v 162 14
v 163 8
v 164 20
v 165 10
v 166 9
v 167 25
v 168 2
v 169 1
v 170 4
v 171 41
v 172 19
v 173 14
v 174 39
v 175 12
v 176 3
v 177 35
v 178 2
v 179 19
v 180 5
v 181 28
v 182 7
v 183 0
v 184 0
v 185 37
v 186 1
v 187 16
v 188 0
v 189 17
v 190 23
v 191 38
v 192 18
v 193 1
v 194 40
v 195 27
v 196 15
v 197 32
v 198 14
v 199 21
v 200 30
v 201 6
v 202 16
v 203 4
v 204 9
v 205 28
v 206 32
v 207 23
v 208 30
v 209 3
v 210 13
v 211 12
v 212 28
v 213 8
v 214 5
v 215 15
v 216 4
v 217 13
v 218 28
v 219 33
v 220 5
v 221 29
v 222 19
v 223 30
v 224 5
v 225 4
v 226 13
v 227 22
v 228 9
v 229 1
v 230 29
v 231 33
v 232 12
v 233 8
v 234 29
v 235 8
v 236 0
v 237 3
v 238 26
v 239 22
v 240 6
v 241 13
v 242 25
v 243 6
v 244 25
v 245 9
v 246 13
v 247 10
v 248 20
v 249 6
v 250 38
v 251 5
v 252 2
v 253 11
v 254 15
v 255 3
v 256 35
v 257 0
v 258 13
v 259 3
v 260 20
v 261 8
v 262 27
v 263 37
v 264 4
v 265 1
v 266 14
v 267 18
v 268 24
v 269 17
v 270 3
v 271 23
v 272 13
v 273 34
v 274 19
v 275 5
v 276 4
v 277 5
v 278 13
v 279 27
v 280 22
v 281 5
v 282 4
v 283 26
v 284 15
v 285 21
v 286 37
v 287 10
v 288 24
v 289 18
v 290 31
v 291 9
v 292 32
v 293 4
v 294 35
v 295 8
v 296 28
v 297 26
v 298 30
v 299 3
v 300 21
v 301 36
v 302 36
v 303 9
v 304 26
v 305 19
v 306 35
v 307 22
v 308 18
v 309 23
v 310 24
v 311 12
v 312 33
v 313 9
v 314 26
v 315 14
v 316 31
v 317 13
v 318 17
v 319 14
v 320 16
v 321 12
v 322 27
v 323 18
v 324 9
v 325 5
v 326 31
v 327 6
v 328 3
v 329 41
v 330 27
v 331 3
v 332 16
v 333 12
v 334 19
v 335 30
v 336 12
v 337 37
v 338 2
v 339 25
v 340 5
v 341 9
v 342 20
v 343 24
v 344 9
v 345 10
v 346 20
v 347 25
v 348 9
v 349 28
v 350 30
v 351 29
v 352 12
v 353 9
v 354 34
v 355 24
v 356 17
v 357 1
v 358 11
v 359 3
v 360 0
v 361 0
v 362 0
v 363 40
v 364 21
v 365 9
v 366 10
v 367 23
v 368 7
v 369 7
v 370 16
v 371 12
v 372 0
v 373 5
v 374 4
v 375 0
v 376 23
v 377 2
v 378 6
v 379 35
v 380 39
v 381 25
v 382 0
v 383 1
v 384 0
v 385 1
